NAME : A-n08-k2
COMMENT :
TYPE : CVRP
DIMENSION : 8
EDGE_WEIGHT_TYPE : EUC_2D 
CAPACITY : 50
NODE_COORD_SECTION 
 1 42 68
 2 77 97
 3 28 64
 4 77 39
 5 32 33
 6 32 8
 7 42 92
 8 8 3
DEMAND_SECTION 
1 0 
2 5 
3 23 
4 14 
5 13 
6 8 
7 18 
8 19 
DEPOT_SECTION 
 1  
 -1  
EOF 
